# Solution for model problem_
# Objective value = 1.2221020030398945e+05
x(0_0) 0
x(0_1) 0
x(0_2) 0
x(0_3) 0
x(0_4) 0
x(0_5) 1
x(0_6) 0
x(0_7) 0
x(0_8) 0
x(0_9) 0
x(1_10) 0
x(1_11) 0
x(1_12) 1
x(1_13) 0
x(1_14) 0
x(1_15) 0
x(1_16) 0
x(1_17) 0
x(1_18) 0
x(1_19) 0
x(1_20) 0
x(1_21) 0
x(1_22) 0
x(1_23) 0
x(1_24) 0
x(2_25) 0
x(2_26) 0
x(2_27) 0
x(2_28) 0
x(2_29) 0
x(2_30) 0
x(2_31) 0
x(2_32) 0
x(2_33) 0
x(2_34) 0
x(2_35) 0
x(2_36) 0
x(2_37) 0
x(2_38) 0
x(2_39) 0
x(2_40) 0
x(2_41) 0
x(2_42) 0
x(2_43) 1
x(2_44) 0
x(3_45) 0
x(3_46) 0
x(3_47) 0
x(3_48) 0
x(3_49) 0
x(3_50) 1
x(3_51) 0
x(3_52) 0
x(3_53) 0
x(3_54) 0
x(3_55) 0
x(3_56) 0
x(3_57) 0
x(3_58) 0
x(3_59) 0
x(3_60) 0
x(3_61) 0
x(3_62) 0
x(4_63) 0
x(4_64) 0
x(4_65) 0
x(4_66) 0
x(4_67) 0
x(4_68) 0
x(4_69) 0
x(4_70) 0
x(4_71) 0
x(4_72) 0
x(4_73) 0
x(4_74) 0
x(4_75) 1
x(4_76) 0
x(5_77) 0
x(5_78) 0
x(5_79) 0
x(5_80) 0
x(5_81) 0
x(5_82) 0
x(5_83) 0
x(5_84) 0
x(5_85) 0
x(5_86) 0
x(5_87) 1
x(5_88) 0
x(5_89) 0
x(5_90) 0
x(5_91) 0
x(5_92) 0
x(5_93) 0
x(6_94) 0
x(6_95) 0
x(6_96) 0
x(6_97) 0
x(6_98) 0
x(6_99) 1
x(6_100) 0
x(6_101) 0
x(6_102) 0
x(6_103) 0
x(6_104) 0
x(6_105) 0
x(6_106) 0
x(6_107) 0
x(6_108) 0
x(6_109) 0
x(6_110) 0
x(7_111) 0
x(7_112) 0
x(7_113) 0
x(7_114) 0
x(7_115) 0
x(7_116) 0
x(7_117) 0
x(7_118) 0
x(7_119) 0
x(7_120) 0
x(7_121) 1
x(7_122) 0
x(7_123) 0
x(7_124) 0
x(7_125) 0
x(7_126) 0
x(7_127) 0
x(7_128) 0
x(8_129) 0
x(8_130) 0
x(8_131) 0
x(8_132) 0
x(8_133) 0
x(8_134) 0
x(8_135) 0
x(8_136) 0
x(8_137) 0
x(8_138) 0
x(8_139) 0
x(8_140) 0
x(8_141) 0
x(8_142) 1
x(8_143) 0
x(9_144) 0
x(9_145) 0
x(9_146) 0
x(9_147) 0
x(9_148) 0
x(9_149) 0
x(9_150) 0
x(9_151) 0
x(9_152) 0
x(9_153) 1
x(9_154) 0
x(9_155) 0
x(9_156) 0
x(9_157) 0
x(10_158) 1
x(10_159) 0
x(10_160) 0
x(10_161) 0
x(10_162) 0
x(10_163) 0
x(10_164) 0
x(10_165) 0
x(10_166) 0
x(10_167) 0
x(10_168) 0
x(10_169) 0
x(10_170) 0
x(10_171) 0
x(11_172) 0
x(11_173) 0
x(11_174) 0
x(11_175) 0
x(11_176) 0
x(11_177) 0
x(11_178) 0
x(11_179) 0
x(11_180) 0
x(11_181) 0
x(11_182) 0
x(11_183) 1
x(12_184) 0
x(12_185) 0
x(12_186) 0
x(12_187) 0
x(12_188) 0
x(12_189) 0
x(12_190) 0
x(12_191) 0
x(12_192) 1
x(12_193) 0
x(12_194) 0
x(12_195) 0
x(12_196) 0
x(12_197) 0
x(13_198) 0
x(13_199) 0
x(13_200) 0
x(13_201) 0
x(13_202) 0
x(13_203) 1
x(13_204) 0
x(13_205) 0
x(13_206) 0
x(13_207) 0
x(13_208) 0
x(13_209) 0
x(13_210) 0
x(14_211) 0
x(14_212) 0
x(14_213) 0
x(14_214) 0
x(14_215) 0
x(14_216) 0
x(14_217) 0
x(14_218) 0
x(14_219) 0
x(14_220) 0
x(14_221) 0
x(14_222) 0
x(14_223) 0
x(14_224) 0
x(14_225) 0
x(14_226) 0
x(14_227) 0
x(14_228) 0
x(14_229) 1
x(15_230) 0
x(15_231) 0
x(15_232) 0
x(15_233) 0
x(15_234) 0
x(15_235) 0
x(15_236) 0
x(15_237) 0
x(15_238) 0
x(15_239) 0
x(15_240) 0
x(15_241) 1
x(16_242) 0
x(16_243) 0
x(16_244) 0
x(16_245) 0
x(16_246) 0
x(16_247) 0
x(16_248) 0
x(16_249) 0
x(16_250) 0
x(16_251) 1
x(16_252) 0
x(16_253) 0
x(16_254) 0
x(16_255) 0
x(16_256) 0
x(17_257) 0
x(17_258) 0
x(17_259) 0
x(17_260) 0
x(17_261) 0
x(17_262) 0
x(17_263) 0
x(17_264) 0
x(17_265) 0
x(17_266) 0
x(17_267) 0
x(17_268) 0
x(17_269) 1
x(17_270) 0
x(18_271) 0
x(18_272) 0
x(18_273) 0
x(18_274) 1
x(18_275) 0
x(18_276) 0
x(18_277) 0
x(18_278) 0
x(18_279) 0
x(18_280) 0
x(18_281) 0
x(19_282) 0
x(19_283) 0
x(19_284) 0
x(19_285) 0
x(19_286) 1
x(19_287) 0
x(19_288) 0
x(19_289) 0
x(19_290) 0
x(19_291) 0
x(19_292) 0
x(19_293) 0
x(19_294) 0
x(19_295) 0
x(19_296) 0
x(19_297) 0
x(20_298) 0
x(20_299) 0
x(20_300) 0
x(20_301) 0
x(20_302) 0
x(20_303) 0
x(20_304) 1
x(20_305) 0
x(20_306) 0
x(20_307) 0
x(20_308) 0
x(20_309) 0
x(20_310) 0
x(20_311) 0
x(21_312) 0
x(21_313) 0
x(21_314) 0
x(21_315) 0
x(21_316) 0
x(21_317) 0
x(21_318) 0
x(21_319) 1
x(21_320) 0
x(21_321) 0
x(21_322) 0
x(22_323) 1
x(22_324) 0
x(22_325) 0
x(22_326) 0
x(22_327) 0
x(22_328) 0
x(22_329) 0
x(22_330) 0
x(22_331) 0
x(22_332) 0
x(23_333) 1
x(23_334) 0
x(23_335) 0
x(23_336) 0
x(23_337) 0
x(23_338) 0
x(23_339) 0
x(23_340) 0
x(23_341) 0
x(23_342) 0
x(23_343) 0
x(24_344) 0
x(24_345) 0
x(24_346) 0
x(24_347) 0
x(24_348) 0
x(24_349) 0
x(24_350) 0
x(24_351) 0
x(24_352) 0
x(24_353) 0
x(24_354) 0
x(24_355) 0
x(24_356) 0
x(24_357) 0
x(24_358) 1
x(24_359) 0
x(24_360) 0
x(24_361) 0
x(25_362) 0
x(25_363) 0
x(25_364) 0
x(25_365) 0
x(25_366) 0
x(25_367) 0
x(25_368) 0
x(25_369) 0
x(25_370) 0
x(25_371) 0
x(25_372) 0
x(25_373) 0
x(25_374) 0
x(25_375) 0
x(25_376) 0
x(25_377) 1
x(26_378) 0
x(26_379) 1
x(26_380) 0
x(26_381) 0
x(26_382) 0
x(26_383) 0
x(26_384) 0
x(26_385) 0
x(26_386) 0
x(26_387) 0
x(26_388) 0
x(26_389) 0
x(26_390) 0
x(26_391) 0
x(27_392) 0
x(27_393) 0
x(27_394) 0
x(27_395) 0
x(27_396) 0
x(27_397) 0
x(27_398) 0
x(27_399) 1
x(27_400) 0
x(27_401) 0
x(27_402) 0
x(27_403) 0
x(27_404) 0
x(27_405) 0
x(27_406) 0
x(27_407) 0
x(28_408) 0
x(28_409) 0
x(28_410) 0
x(28_411) 0
x(28_412) 0
x(28_413) 0
x(28_414) 0
x(28_415) 0
x(28_416) 0
x(28_417) 0
x(28_418) 0
x(28_419) 0
x(28_420) 0
x(28_421) 0
x(28_422) 0
x(28_423) 0
x(28_424) 0
x(28_425) 0
x(28_426) 1
x(29_427) 0
x(29_428) 0
x(29_429) 1
x(29_430) 0
x(29_431) 0
x(29_432) 0
x(29_433) 0
x(29_434) 0
x(29_435) 0
x(29_436) 0
x(29_437) 0
x(29_438) 0
x(29_439) 0
x(29_440) 0
x(30_441) 0
x(30_442) 0
x(30_443) 0
x(30_444) 0
x(30_445) 0
x(30_446) 0
x(30_447) 0
x(30_448) 0
x(30_449) 0
x(30_450) 0
x(30_451) 0
x(30_452) 0
x(30_453) 0
x(30_454) 1
x(30_455) 0
x(30_456) 0
x(30_457) 0
x(31_458) 0
x(31_459) 1
x(31_460) 0
x(31_461) 0
x(31_462) 0
x(31_463) 0
x(31_464) 0
x(31_465) 0
x(31_466) 0
x(31_467) 0
x(31_468) 0
x(31_469) 0
x(31_470) 0
x(32_471) 0
x(32_472) 0
x(32_473) 0
x(32_474) 0
x(32_475) 0
x(32_476) 0
x(32_477) 0
x(32_478) 1
x(32_479) 0
x(32_480) 0
x(32_481) 0
x(32_482) 0
x(32_483) 0
x(32_484) 0
x(32_485) 0
x(32_486) 0
x(33_487) 0
x(33_488) 0
x(33_489) 0
x(33_490) 0
x(33_491) 0
x(33_492) 0
x(33_493) 0
x(33_494) 1
x(33_495) 0
x(33_496) 0
x(33_497) 0
x(33_498) 0
x(33_499) 0
x(33_500) 0
x(33_501) 0
x(33_502) 0
x(34_503) 0
x(34_504) 0
x(34_505) 0
x(34_506) 0
x(34_507) 0
x(34_508) 0
x(34_509) 0
x(34_510) 0
x(34_511) 0
x(34_512) 0
x(34_513) 0
x(34_514) 1
x(34_515) 0
x(35_516) 0
x(35_517) 0
x(35_518) 0
x(35_519) 0
x(35_520) 0
x(35_521) 0
x(35_522) 0
x(35_523) 0
x(35_524) 0
x(35_525) 0
x(35_526) 0
x(35_527) 0
x(35_528) 0
x(35_529) 0
x(35_530) 0
x(35_531) 1
x(35_532) 0
x(35_533) 0
x(35_534) 0
x(35_535) 0
x(36_536) 0
x(36_537) 0
x(36_538) 0
x(36_539) 0
x(36_540) 0
x(36_541) 0
x(36_542) 0
x(36_543) 0
x(36_544) 0
x(36_545) 0
x(36_546) 1
x(36_547) 0
x(36_548) 0
x(37_549) 0
x(37_550) 0
x(37_551) 0
x(37_552) 1
x(37_553) 0
x(37_554) 0
x(37_555) 0
x(37_556) 0
x(37_557) 0
x(37_558) 0
x(37_559) 0
x(37_560) 0
x(37_561) 0
x(37_562) 0
x(37_563) 0
x(37_564) 0
x(38_565) 0
x(38_566) 1
x(38_567) 0
x(38_568) 0
x(38_569) 0
x(38_570) 0
x(38_571) 0
x(38_572) 0
x(38_573) 0
x(38_574) 0
x(38_575) 0
x(39_576) 0
x(39_577) 0
x(39_578) 0
x(39_579) 0
x(39_580) 0
x(39_581) 0
x(39_582) 0
x(39_583) 1
x(39_584) 0
x(39_585) 0
x(39_586) 0
x(39_587) 0
x(39_588) 0
x(39_589) 0
x(39_590) 0
x(40_591) 0
x(40_592) 0
x(40_593) 0
x(40_594) 0
x(40_595) 1
x(40_596) 0
x(40_597) 0
x(40_598) 0
x(40_599) 0
x(40_600) 0
x(40_601) 0
x(40_602) 0
x(40_603) 0
x(40_604) 0
x(41_605) 1
x(41_606) 0
x(41_607) 0
x(41_608) 0
x(41_609) 0
x(41_610) 0
x(41_611) 0
x(41_612) 0
x(41_613) 0
x(41_614) 0
x(41_615) 0
x(42_616) 0
x(42_617) 0
x(42_618) 0
x(42_619) 1
x(42_620) 0
x(42_621) 0
x(42_622) 0
x(42_623) 0
x(42_624) 0
x(42_625) 0
x(42_626) 0
x(42_627) 0
x(42_628) 0
x(42_629) 0
x(42_630) 0
x(42_631) 0
x(42_632) 0
x(43_633) 1
x(43_634) 0
x(43_635) 0
x(43_636) 0
x(43_637) 0
x(43_638) 0
x(43_639) 0
x(43_640) 0
x(43_641) 0
x(43_642) 0
x(43_643) 0
x(43_644) 0
x(43_645) 0
x(43_646) 0
x(44_647) 0
x(44_648) 0
x(44_649) 0
x(44_650) 0
x(44_651) 0
x(44_652) 0
x(44_653) 0
x(44_654) 0
x(44_655) 0
x(44_656) 0
x(44_657) 1
x(44_658) 0
x(44_659) 0
x(44_660) 0
x(44_661) 0
x(44_662) 0
x(44_663) 0
x(44_664) 0
x(44_665) 0
x(44_666) 0
x(45_667) 0
x(45_668) 0
x(45_669) 0
x(45_670) 0
x(45_671) 0
x(45_672) 0
x(45_673) 0
x(45_674) 0
x(45_675) 0
x(45_676) 0
x(45_677) 0
x(45_678) 0
x(45_679) 0
x(45_680) 1
x(46_681) 0
x(46_682) 0
x(46_683) 0
x(46_684) 0
x(46_685) 0
x(46_686) 0
x(46_687) 0
x(46_688) 0
x(46_689) 0
x(46_690) 0
x(46_691) 1
x(46_692) 0
x(46_693) 0
x_1_0 2.1258808419667184e+02
s_1_0 0
z_1_0 0
x_1_1 2.1161233638226986e+02
s_1_1 0
z_1_1 0
x_1_2 0
s_1_2 7.9166836058720946e-01
z_1_2 1
x_1_3 2.1402214293275028e+02
s_1_3 0
z_1_3 0
x_1_4 2.1170589688420296e+02
s_1_4 0
z_1_4 0
x_1_5 0
s_1_5 7.6153647422324866e-01
z_1_5 1
x_1_6 2.1128917051700410e+02
s_1_6 0
z_1_6 0
x_1_7 2.1245636134035885e+02
s_1_7 0
z_1_7 0
x_1_8 0
s_1_8 1.0461628823541105e+00
z_1_8 1
x_1_9 2.1210051167663187e+02
s_1_9 0
z_1_9 0
x_1_10 4.9999557930913339e+04
s_1_10 5.0000442069086654e+04
z_1_10 5.0000442069086659e-01
x_1_11 4.9999557113487390e+04
s_1_11 5.0000442886512610e+04
z_1_11 5.0000442886512608e-01
x_1_12 2.1345055995031726e+02
s_1_12 0
z_1_12 0
x_1_13 2.1070959868887439e+02
s_1_13 0
z_1_13 0
x_1_14 0
s_1_14 7.9406794579699636e-01
z_1_14 1
x_1_15 2.1137282358226366e+02
s_1_15 0
z_1_15 0
x_1_16 2.1266554792784154e+02
s_1_16 0
z_1_16 0
x_1_17 0
s_1_17 1.2123980120522901e+00
z_1_17 1
x_1_18 0
s_1_18 1.1618924441281706e+00
z_1_18 1
x_1_19 0
s_1_19 8.7823465390829369e-01
z_1_19 1
x_1_20 0
s_1_20 1.4581954230088741e+00
z_1_20 1
x_1_21 0
s_1_21 9.3048160616308451e-01
z_1_21 1
x_1_22 4.9999378950946382e+04
s_1_22 5.0000621049053618e+04
z_1_22 5.0000621049053617e-01
x_1_23 2.1181572282593697e+02
s_1_23 0
z_1_23 0
x_1_24 2.0589947335235775e+02
s_1_24 0
z_1_24 0
x_1_25 2.1291226860415190e+02
s_1_25 0
z_1_25 0
x_1_26 2.1341260617040098e+02
s_1_26 0
z_1_26 0
x_1_27 0
s_1_27 8.6603122389351483e-01
z_1_27 1
x_1_28 0
s_1_28 1.8786786342971027e+00
z_1_28 1
x_1_29 2.1188154909573495e+02
s_1_29 0
z_1_29 0
x_1_30 0
s_1_30 1.1347268779063597e+00
z_1_30 1
x_1_31 2.1216633776202798e+02
s_1_31 0
z_1_31 0
x_1_32 0
s_1_32 8.4295800188556314e-01
z_1_32 1
x_1_33 0
s_1_33 1.3196576564223506e+00
z_1_33 1
x_1_34 2.1322710744664073e+02
s_1_34 0
z_1_34 0
x_1_35 0
s_1_35 1.0863265169318765e+00
z_1_35 1
x_1_36 2.1305459907464683e+02
s_1_36 0
z_1_36 0
x_1_37 0
s_1_37 1.0759350528242067e+00
z_1_37 1
x_1_38 2.1354385307407938e+02
s_1_38 0
z_1_38 0
x_1_39 0
s_1_39 1.4743629659642465e+00
z_1_39 1
x_1_40 2.1297939845686778e+02
s_1_40 0
z_1_40 0
x_1_41 4.9999469309041466e+04
s_1_41 5.0000530690958534e+04
z_1_41 5.0000530690958533e-01
x_1_42 2.1185367011342896e+02
s_1_42 0
z_1_42 0
x_1_43 2.1366829208284616e+02
s_1_43 0
z_1_43 0
x_1_44 2.1386567481933162e+02
s_1_44 0
z_1_44 0
x_1_45 4.9999317337255314e+04
s_1_45 5.0000682662744686e+04
z_1_45 5.0000682662744689e-01
x_1_46 0
s_1_46 1.2749237748794258e+00
z_1_46 1
x_1_47 0
s_1_47 1.0312208426184952e+00
z_1_47 1
x_1_48 2.1269677998498082e+02
s_1_48 0
z_1_48 0
x_1_49 0
s_1_49 1.3077141393914644e+00
z_1_49 1
x_1_50 2.1305247681308538e+02
s_1_50 0
z_1_50 0
x_1_51 2.1212321682320908e+02
s_1_51 0
z_1_51 0
x_1_52 2.1351625408139080e+02
s_1_52 0
z_1_52 0
x_1_53 2.1377135647251271e+02
s_1_53 0
z_1_53 0
x_1_54 2.1161286621168256e+02
s_1_54 0
z_1_54 0
x_1_55 2.1307349985488690e+02
s_1_55 0
z_1_55 0
x_1_56 0
s_1_56 1.0324484440498054e+00
z_1_56 1
x_1_57 2.1072665012441576e+02
s_1_57 0
z_1_57 0
x_1_58 2.1137581066007260e+02
s_1_58 0
z_1_58 0
x_1_59 2.1297924689832143e+02
s_1_59 0
z_1_59 0
x_1_60 0
s_1_60 8.6330949491821229e-01
z_1_60 1
x_1_61 0
s_1_61 1.08280054689385
z_1_61 1
x_1_62 2.1313924967683852e+02
s_1_62 0
z_1_62 0
x_1_63 2.1394511579163373e+02
s_1_63 0
z_1_63 0
x_1_64 0
s_1_64 0.772711320547387
z_1_64 1
x_1_65 2.1148220622912049e+02
s_1_65 0
z_1_65 0
x_1_66 0
s_1_66 4.4587589584989473e-01
z_1_66 1
x_1_67 0
s_1_67 4.4405118178110570e-01
z_1_67 1
x_1_68 2.1361607796140015e+02
s_1_68 0
z_1_68 0
x_1_69 4.9999508350256830e+04
s_1_69 5.0000491649743170e+04
z_1_69 5.0000491649743173e-01
x_1_70 2.0812911890633404e+02
s_1_70 0
z_1_70 0
x_1_71 0
s_1_71 1.2011174862273037e+00
z_1_71 1
x_1_72 2.0658810981642455e+02
s_1_72 0
z_1_72 0
x_1_73 2.1267682377621531e+02
s_1_73 0
z_1_73 0
x_1_74 2.1348321525927167e+02
s_1_74 0
z_1_74 0
x_1_75 2.1080564312799834e+02
s_1_75 0
z_1_75 0
x_1_76 4.9999384889718487e+04
s_1_76 5.0000615110281513e+04
z_1_76 5.0000615110281510e-01
x_1_77 2.1190231464616954e+02
s_1_77 0
z_1_77 0
x_1_78 2.1372086239198688e+02
s_1_78 0
z_1_78 0
x_1_79 2.1203705566003919e+02
s_1_79 0
z_1_79 0
x_1_80 4.9999382081899683e+04
s_1_80 5.0000617918100317e+04
z_1_80 5.0000617918100321e-01
x_1_81 2.1099703060276806e+02
s_1_81 0
z_1_81 0
x_1_82 2.1101326957345009e+02
s_1_82 0
z_1_82 0
x_1_83 2.1362497439701110e+02
s_1_83 0
z_1_83 0
x_1_84 2.1285093960165977e+02
s_1_84 0
z_1_84 0
x_1_85 0
s_1_85 7.1044793020701036e-01
z_1_85 1
x_1_86 4.9999408248930355e+04
s_1_86 5.0000591751069645e+04
z_1_86 5.0000591751069645e-01
x_1_87 4.9999489082170257e+04
s_1_87 5.0000510917829743e+04
z_1_87 5.0000510917829744e-01
x_1_88 2.1245432671159506e+02
s_1_88 0
z_1_88 0
x_1_89 0
s_1_89 9.3622987892013043e-01
z_1_89 1
x_1_90 0
s_1_90 0.911085352068767
z_1_90 1
x_1_91 2.1099149950966239e+02
s_1_91 0
z_1_91 0
x_1_92 0
s_1_92 9.9567274842411280e-01
z_1_92 1
x_1_93 2.1173851088248193e+02
s_1_93 0
z_1_93 0
x_1_94 0
s_1_94 1.2914360384456813e+00
z_1_94 1
x_1_95 0
s_1_95 1.2082527223974466e+00
z_1_95 1
x_1_96 0
s_1_96 1.2038185835117474e+00
z_1_96 1
x_1_97 2.1180879962071776e+02
s_1_97 0
z_1_97 0
x_1_98 4.9999691136898473e+04
s_1_98 5.0000308863101527e+04
z_1_98 5.0000308863101528e-01
x_1_99 2.1349377741385251e+02
s_1_99 0
z_1_99 0
x_1_100 2.1146228496171534e+02
s_1_100 0
z_1_100 0
x_1_101 2.1185230816900730e+02
s_1_101 0
z_1_101 0
x_1_102 2.1212410470377654e+02
s_1_102 0
z_1_102 0
x_1_103 2.1102667768299580e+02
s_1_103 0
z_1_103 0
x_1_104 2.1214809484034777e+02
s_1_104 0
z_1_104 0
x_1_105 2.1257823231490329e+02
s_1_105 0
z_1_105 0
x_1_106 2.1136109571764246e+02
s_1_106 0
z_1_106 0
x_1_107 2.1283009920455515e+02
s_1_107 0
z_1_107 0
x_1_108 0
s_1_108 3.3096762551576830e-01
z_1_108 1
x_1_109 4.9999445444118908e+04
s_1_109 5.0000554555881092e+04
z_1_109 5.0000554555881094e-01
x_1_110 2.1353183756396174e+02
s_1_110 0
z_1_110 0
x_1_111 0
s_1_111 6.1945888807531446e-01
z_1_111 1
x_1_112 2.1356549287308007e+02
s_1_112 0
z_1_112 0
x_1_113 0
s_1_113 9.0552417599246837e-01
z_1_113 1
x_1_114 2.1253887807764113e+02
s_1_114 0
z_1_114 0
x_1_115 2.1274300885433331e+02
s_1_115 0
z_1_115 0
x_1_116 2.1363489912170917e+02
s_1_116 0
z_1_116 0
x_1_117 2.1147173812240362e+02
s_1_117 0
z_1_117 0
x_1_118 0
s_1_118 6.0469960951013491e-01
z_1_118 1
x_1_119 2.1171504132170230e+02
s_1_119 0
z_1_119 0
x_1_120 4.9999642967067717e+04
s_1_120 5.0000357032932283e+04
z_1_120 5.0000357032932286e-01
x_1_121 0
s_1_121 8.2915163712459616e-01
z_1_121 1
x_1_122 0
s_1_122 7.7183295367285609e-01
z_1_122 1
x_1_123 2.1374628920480609e+02
s_1_123 0
z_1_123 0
x_1_124 0
s_1_124 9.2250883893575519e-01
z_1_124 1
x_1_125 2.1255145191960037e+02
s_1_125 0
z_1_125 0
x_1_126 2.1363847186882049e+02
s_1_126 0
z_1_126 0
x_1_127 2.1235589963011444e+02
s_1_127 0
z_1_127 0
x_1_128 4.9999421971819982e+04
s_1_128 5.0000578028180025e+04
z_1_128 5.0000578028180021e-01
x_1_129 2.1250390798598528e+02
s_1_129 0
z_1_129 0
x_1_130 2.1172319389320910e+02
s_1_130 0
z_1_130 0
x_1_131 2.1196212838403881e+02
s_1_131 0
z_1_131 0
x_1_132 0
s_1_132 1.3144148510473315e+00
z_1_132 1
x_1_133 2.1303638120368123e+02
s_1_133 0
z_1_133 0
x_1_134 2.1223110916744918e+02
s_1_134 0
z_1_134 0
x_1_135 4.9999647848218243e+04
s_1_135 5.0000352151781757e+04
z_1_135 5.0000352151781757e-01
x_1_136 0
s_1_136 8.1371833616867661e-01
z_1_136 1
x_1_137 0
s_1_137 1.6314413421787322e-01
z_1_137 1
x_1_138 211.771414754563
s_1_138 0
z_1_138 0
x_1_139 2.1400366024486721e+02
s_1_139 0
z_1_139 0
x_1_140 2.1253109028935432e+02
s_1_140 0
z_1_140 0
x_1_141 211.648676648736
s_1_141 0
z_1_141 0
x_1_142 0
s_1_142 5.2358789648860693e-01
z_1_142 1
x_1_143 2.1338268736528698e+02
s_1_143 0
z_1_143 0
x_1_144 4.9999513382691075e+04
s_1_144 5.0000486617308925e+04
z_1_144 5.0000486617308926e-01
x_1_145 2.1376788394805044e+02
s_1_145 0
z_1_145 0
x_1_146 0
s_1_146 1.3789356655906886e+00
z_1_146 1
x_1_147 2.1108633530332008e+02
s_1_147 0
z_1_147 0
x_1_148 2.1315283528715372e+02
s_1_148 0
z_1_148 0
x_1_149 0
s_1_149 1.0332306765485555e+00
z_1_149 1
x_1_150 2.1296382614888716e+02
s_1_150 0
z_1_150 0
x_1_151 2.1344341372512281e+02
s_1_151 0
z_1_151 0
x_1_152 4.9999489292211394e+04
s_1_152 5.0000510707788606e+04
z_1_152 0.500005107077886
x_1_153 0
s_1_153 1.2742709789890796e+00
z_1_153 1
x_1_154 0
s_1_154 1.03412577623385
z_1_154 1
x_1_155 2.1213333524391055e+02
s_1_155 0
z_1_155 0
x_1_156 0
s_1_156 1.3138494762242772e+00
z_1_156 1
x_1_157 2.1270121295284480e+02
s_1_157 0
z_1_157 0
x_1_158 2.1166328692063689e+02
s_1_158 0
z_1_158 0
x_1_159 0
s_1_159 5.6427446822635829e-01
z_1_159 1
x_2_0 1.2155594230398945e+05
